; PUSH cw_3 DUP3 GT ISZERO ISZERO => DUP2 PUSH cw_3 LT
(set-option :produce-proofs true)
; 
(set-info :status unknown)
(declare-fun storage_t ((_ BitVec 256) (_ BitVec 256) (_ BitVec 256) Int (_ BitVec 256)) (_ BitVec 256))
(declare-fun w_3 () (_ BitVec 256))
(declare-fun storage_s ((_ BitVec 256) (_ BitVec 256) (_ BitVec 256) Int (_ BitVec 256)) (_ BitVec 256))
(declare-fun exc_halt_t (Int) Bool)
(declare-fun exc_halt_s (Int) Bool)
(declare-fun stack_t ((_ BitVec 256) (_ BitVec 256) (_ BitVec 256) Int (_ BitVec 6)) (_ BitVec 256))
(declare-fun stack_s ((_ BitVec 256) (_ BitVec 256) (_ BitVec 256) Int (_ BitVec 6)) (_ BitVec 256))
(declare-fun sc_t (Int) (_ BitVec 6))
(declare-fun sc_s (Int) (_ BitVec 6))
(declare-fun used_gas_t ((_ BitVec 256) (_ BitVec 256) (_ BitVec 256) Int) Int)
(declare-fun used_gas_s ((_ BitVec 256) (_ BitVec 256) (_ BitVec 256) Int) Int)
(assert
 (exists ((x_0 (_ BitVec 256)) (x_1 (_ BitVec 256)) )(let (($x1467 (forall ((w (_ BitVec 256)) )(let ((?x5841 (storage_t x_0 x_1 w_3 3 w)))
 (let ((?x8406 (storage_s x_0 x_1 w_3 5 w)))
 (= ?x8406 ?x5841))))
 ))
 (let (($x6783 (exc_halt_t 3)))
 (let (($x11317 (exc_halt_s 5)))
 (let (($x11613 (= $x11317 $x6783)))
 (let (($x1077 (forall ((n (_ BitVec 6)) )(let ((?x11818 (stack_t x_0 x_1 w_3 3 n)))
 (let ((?x5800 (stack_s x_0 x_1 w_3 5 n)))
 (let (($x757 (= ?x5800 ?x11818)))
 (let ((?x6438 (sc_t 3)))
 (let (($x230 (bvsle ?x6438 n)))
 (or $x230 $x757)))))))
 ))
 (let ((?x6438 (sc_t 3)))
 (let ((?x4319 (sc_s 5)))
 (let (($x7281 (= ?x4319 ?x6438)))
 (let ((?x3283 (used_gas_t x_0 x_1 w_3 0)))
 (let ((?x7239 (used_gas_s x_0 x_1 w_3 0)))
 (let (($x8022 (= ?x7239 ?x3283)))
 (let (($x924 (forall ((w (_ BitVec 256)) )(let ((?x5405 (storage_t x_0 x_1 w_3 0 w)))
 (let ((?x6773 (storage_s x_0 x_1 w_3 0 w)))
 (= ?x6773 ?x5405))))
 ))
 (let (($x56 (exc_halt_t 0)))
 (let (($x57 (exc_halt_s 0)))
 (let (($x58 (= $x57 $x56)))
 (let (($x341 (forall ((n (_ BitVec 6)) )(let ((?x5171 (stack_t x_0 x_1 w_3 0 n)))
 (let ((?x1790 (stack_s x_0 x_1 w_3 0 n)))
 (let (($x4546 (= ?x1790 ?x5171)))
 (let ((?x63 (sc_t 0)))
 (let (($x368 (bvsle ?x63 n)))
 (or $x368 $x4546)))))))
 ))
 (let ((?x63 (sc_t 0)))
 (let ((?x72 (sc_s 0)))
 (let (($x73 (= ?x72 ?x63)))
 (let (($x6380 (= $x6783 (or (exc_halt_t 2) (not (bvsle (_ bv0 6) (bvadd (_ bv62 6) (sc_t 2))))))))
 (let (($x6564 (forall ((w (_ BitVec 256)) )(let ((?x4425 (storage_t x_0 x_1 w_3 2 w)))
 (let ((?x5841 (storage_t x_0 x_1 w_3 3 w)))
 (= ?x5841 ?x4425))))
 ))
 (let (($x10692 (forall ((n (_ BitVec 6)) )(let ((?x4961 (stack_t x_0 x_1 w_3 2 n)))
 (let ((?x11818 (stack_t x_0 x_1 w_3 3 n)))
 (let ((?x2714 (sc_t 2)))
 (let ((?x718 (bvadd (_ bv62 6) ?x2714)))
 (let (($x4152 (bvsle ?x718 n)))
 (or $x4152 (= ?x11818 ?x4961))))))))
 ))
 (let ((?x2714 (sc_t 2)))
 (let ((?x10249 (bvadd (_ bv63 6) ?x2714)))
 (let (($x7102 (= ?x6438 ?x10249)))
 (let (($x9439 (= (used_gas_t x_0 x_1 w_3 3) (+ 3 (used_gas_t x_0 x_1 w_3 2)))))
 (let (($x1797 (bvule (stack_t x_0 x_1 w_3 2 (bvadd (_ bv62 6) ?x2714)) (stack_t x_0 x_1 w_3 2 ?x10249))))
 (let (($x1342 (= (stack_t x_0 x_1 w_3 3 (bvadd (_ bv63 6) ?x6438)) (ite $x1797 (_ bv0 256) (_ bv1 256)))))
 (let (($x9506 (not (= ((_ extract 6 6) (bvadd (_ bv1 7) (concat (_ bv0 1) (sc_t 1)))) (_ bv0 1)))))
 (let (($x3508 (exc_halt_t 1)))
 (let (($x10055 (exc_halt_t 2)))
 (let (($x9455 (= $x10055 (or $x3508 $x9506))))
 (let (($x4487 (forall ((w (_ BitVec 256)) )(let ((?x4151 (storage_t x_0 x_1 w_3 1 w)))
 (let ((?x4425 (storage_t x_0 x_1 w_3 2 w)))
 (= ?x4425 ?x4151))))
 ))
 (let (($x5057 (forall ((n (_ BitVec 6)) )(let ((?x8347 (sc_t 1)))
 (let (($x8474 (bvsle ?x8347 n)))
 (let ((?x8302 (stack_t x_0 x_1 w_3 1 n)))
 (let ((?x4961 (stack_t x_0 x_1 w_3 2 n)))
 (or (= ?x4961 ?x8302) $x8474))))))
 ))
 (let (($x3851 (= ?x2714 (bvadd (_ bv1 6) (sc_t 1)))))
 (let ((?x6271 (used_gas_t x_0 x_1 w_3 2)))
 (let (($x10059 (not (= ((_ extract 6 6) (bvadd (_ bv1 7) (concat (_ bv0 1) ?x63))) (_ bv0 1)))))
 (let (($x6722 (not (bvsle (_ bv0 6) (bvadd (_ bv62 6) ?x63)))))
 (let (($x11383 (= $x3508 (or $x56 $x6722 $x10059))))
 (let (($x6490 (forall ((w (_ BitVec 256)) )(let ((?x5405 (storage_t x_0 x_1 w_3 0 w)))
 (let ((?x4151 (storage_t x_0 x_1 w_3 1 w)))
 (= ?x4151 ?x5405))))
 ))
 (let (($x94 (forall ((n (_ BitVec 6)) )(let ((?x63 (sc_t 0)))
 (let ((?x3392 (bvadd (_ bv62 6) ?x63)))
 (let (($x4446 (bvsle ?x3392 n)))
 (let ((?x5171 (stack_t x_0 x_1 w_3 0 n)))
 (let ((?x8302 (stack_t x_0 x_1 w_3 1 n)))
 (or (= ?x8302 ?x5171) $x4446)))))))
 ))
 (let ((?x8347 (sc_t 1)))
 (let (($x7773 (= ?x8347 (bvadd (_ bv1 6) ?x63))))
 (let (($x8010 (= (stack_t x_0 x_1 w_3 1 (bvadd (_ bv63 6) ?x63)) (stack_t x_0 x_1 w_3 0 (bvadd (_ bv63 6) ?x63)))))
 (let ((?x3392 (bvadd (_ bv62 6) ?x63)))
 (let ((?x3662 (stack_t x_0 x_1 w_3 0 ?x3392)))
 (let (($x622 (= $x11317 (or (exc_halt_s 4) (not (bvsle (_ bv0 6) (bvadd (_ bv63 6) (sc_s 4))))))))
 (let (($x2925 (forall ((w (_ BitVec 256)) )(let ((?x5730 (storage_s x_0 x_1 w_3 4 w)))
 (let ((?x8406 (storage_s x_0 x_1 w_3 5 w)))
 (= ?x8406 ?x5730))))
 ))
 (let (($x8553 (forall ((n (_ BitVec 6)) )(let ((?x4305 (sc_s 4)))
 (let ((?x2253 (bvadd (_ bv63 6) ?x4305)))
 (let (($x10058 (bvsle ?x2253 n)))
 (let ((?x2080 (stack_s x_0 x_1 w_3 4 n)))
 (let ((?x5800 (stack_s x_0 x_1 w_3 5 n)))
 (or (= ?x5800 ?x2080) $x10058)))))))
 ))
 (let ((?x4305 (sc_s 4)))
 (let (($x9388 (= ?x4319 ?x4305)))
 (let (($x5941 (= (used_gas_s x_0 x_1 w_3 5) (+ 3 (used_gas_s x_0 x_1 w_3 4)))))
 (let ((?x3138 (ite (= (stack_s x_0 x_1 w_3 4 (bvadd (_ bv63 6) ?x4305)) (_ bv0 256)) (_ bv1 256) (_ bv0 256))))
 (let (($x7172 (exc_halt_s 4)))
 (let (($x710 (= $x7172 (or (exc_halt_s 3) (not (bvsle (_ bv0 6) (bvadd (_ bv63 6) (sc_s 3))))))))
 (let (($x1210 (forall ((w (_ BitVec 256)) )(let ((?x9329 (storage_s x_0 x_1 w_3 3 w)))
 (let ((?x5730 (storage_s x_0 x_1 w_3 4 w)))
 (= ?x5730 ?x9329))))
 ))
 (let (($x2266 (forall ((n (_ BitVec 6)) )(let ((?x275 (sc_s 3)))
 (let ((?x11810 (bvadd (_ bv63 6) ?x275)))
 (let (($x6014 (bvsle ?x11810 n)))
 (let ((?x4408 (stack_s x_0 x_1 w_3 3 n)))
 (let ((?x2080 (stack_s x_0 x_1 w_3 4 n)))
 (or (= ?x2080 ?x4408) $x6014)))))))
 ))
 (let ((?x275 (sc_s 3)))
 (let (($x2450 (= ?x4305 ?x275)))
 (let ((?x6056 (used_gas_s x_0 x_1 w_3 4)))
 (let ((?x284 (ite (= (stack_s x_0 x_1 w_3 3 (bvadd (_ bv63 6) ?x275)) (_ bv0 256)) (_ bv1 256) (_ bv0 256))))
 (let ((?x2253 (bvadd (_ bv63 6) ?x4305)))
 (let ((?x106 (stack_s x_0 x_1 w_3 4 ?x2253)))
 (let (($x292 (exc_halt_s 3)))
 (let (($x1868 (= $x292 (or (exc_halt_s 2) (not (bvsle (_ bv0 6) (bvadd (_ bv62 6) (sc_s 2))))))))
 (let (($x639 (forall ((w (_ BitVec 256)) )(let ((?x3867 (storage_s x_0 x_1 w_3 2 w)))
 (let ((?x9329 (storage_s x_0 x_1 w_3 3 w)))
 (= ?x9329 ?x3867))))
 ))
 (let (($x4724 (forall ((n (_ BitVec 6)) )(let ((?x4252 (stack_s x_0 x_1 w_3 2 n)))
 (let ((?x4408 (stack_s x_0 x_1 w_3 3 n)))
 (let ((?x218 (sc_s 2)))
 (let ((?x7822 (bvadd (_ bv62 6) ?x218)))
 (let (($x3245 (bvsle ?x7822 n)))
 (or $x3245 (= ?x4408 ?x4252))))))))
 ))
 (let ((?x218 (sc_s 2)))
 (let ((?x6729 (bvadd (_ bv63 6) ?x218)))
 (let (($x11085 (= ?x275 ?x6729)))
 (let ((?x7341 (used_gas_s x_0 x_1 w_3 3)))
 (let ((?x695 (stack_s x_0 x_1 w_3 2 ?x6729)))
 (let ((?x8195 (ite (bvule ?x695 (stack_s x_0 x_1 w_3 2 (bvadd (_ bv62 6) ?x218))) (_ bv0 256) (_ bv1 256))))
 (let ((?x11810 (bvadd (_ bv63 6) ?x275)))
 (let ((?x9757 (stack_s x_0 x_1 w_3 3 ?x11810)))
 (let (($x1680 (not (= ((_ extract 6 6) (bvadd (_ bv1 7) (concat (_ bv0 1) (sc_s 1)))) (_ bv0 1)))))
 (let (($x189 (exc_halt_s 1)))
 (let (($x247 (exc_halt_s 2)))
 (let (($x2797 (= $x247 (or $x189 $x1680 (not (bvsle (_ bv0 6) (bvadd (_ bv61 6) (sc_s 1))))))))
 (let (($x6898 (forall ((w (_ BitVec 256)) )(let ((?x2147 (storage_s x_0 x_1 w_3 1 w)))
 (let ((?x3867 (storage_s x_0 x_1 w_3 2 w)))
 (= ?x3867 ?x2147))))
 ))
 (let (($x5799 (forall ((n (_ BitVec 6)) )(let ((?x8440 (stack_s x_0 x_1 w_3 1 n)))
 (let ((?x4252 (stack_s x_0 x_1 w_3 2 n)))
 (let ((?x154 (sc_s 1)))
 (let ((?x6249 (bvadd (_ bv61 6) ?x154)))
 (let (($x625 (bvsle ?x6249 n)))
 (or $x625 (= ?x4252 ?x8440))))))))
 ))
 (let (($x430 (= ?x218 (bvadd (_ bv1 6) (sc_s 1)))))
 (let ((?x835 (used_gas_s x_0 x_1 w_3 2)))
 (let (($x809 (= (stack_s x_0 x_1 w_3 2 (bvadd (_ bv63 6) (sc_s 1))) (stack_s x_0 x_1 w_3 1 (bvadd (_ bv63 6) (sc_s 1))))))
 (let (($x8608 (= (stack_s x_0 x_1 w_3 2 (bvadd (_ bv62 6) (sc_s 1))) (stack_s x_0 x_1 w_3 1 (bvadd (_ bv62 6) (sc_s 1))))))
 (let ((?x154 (sc_s 1)))
 (let ((?x6249 (bvadd (_ bv61 6) ?x154)))
 (let ((?x3670 (stack_s x_0 x_1 w_3 1 ?x6249)))
 (let (($x1174 (= $x189 (or $x57 (not (= ((_ extract 6 6) (bvadd (_ bv1 7) (concat (_ bv0 1) ?x72))) (_ bv0 1)))))))
 (let (($x8843 (forall ((w (_ BitVec 256)) )(let ((?x6773 (storage_s x_0 x_1 w_3 0 w)))
 (let ((?x2147 (storage_s x_0 x_1 w_3 1 w)))
 (= ?x2147 ?x6773))))
 ))
 (let (($x4884 (forall ((n (_ BitVec 6)) )(let ((?x72 (sc_s 0)))
 (let (($x3466 (bvsle ?x72 n)))
 (let ((?x1790 (stack_s x_0 x_1 w_3 0 n)))
 (let ((?x8440 (stack_s x_0 x_1 w_3 1 n)))
 (or (= ?x8440 ?x1790) $x3466))))))
 ))
 (let (($x1515 (= ?x154 (bvadd (_ bv1 6) ?x72))))
 (let (($x10264 (forall ((w (_ BitVec 256)) )(let ((?x6773 (storage_s x_0 x_1 w_3 0 w)))
 (= ?x6773 (_ bv0 256))))
 ))
 (let (($x1411 (= ?x7239 0)))
 (let (($x4102 (not $x57)))
 (let (($x8434 (= (stack_s x_0 x_1 w_3 0 (_ bv1 6)) x_1)))
 (let (($x4947 (= (stack_s x_0 x_1 w_3 0 (_ bv0 6)) x_0)))
 (let (($x5316 (= ?x72 (_ bv2 6))))
 (and $x5316 $x4947 $x8434 $x4102 $x1411 $x10264 (= (stack_s x_0 x_1 w_3 1 ?x72) w_3) (= (used_gas_s x_0 x_1 w_3 1) (+ 3 ?x7239)) $x1515 $x4884 $x8843 $x1174 (= ?x695 ?x3670) (= (stack_s x_0 x_1 w_3 2 ?x6249) ?x3670) $x8608 $x809 (= ?x835 (+ 3 (used_gas_s x_0 x_1 w_3 1))) $x430 $x5799 $x6898 $x2797 (= ?x9757 ?x8195) (= ?x7341 (+ 3 ?x835)) $x11085 $x4724 $x639 $x1868 (= ?x106 ?x284) (= ?x6056 (+ 3 ?x7341)) $x2450 $x2266 $x1210 $x710 (= (stack_s x_0 x_1 w_3 5 (bvadd (_ bv63 6) ?x4319)) ?x3138) $x5941 $x9388 $x8553 $x2925 $x622 (= (stack_t x_0 x_1 w_3 1 (bvadd (_ bv63 6) ?x8347)) ?x3662) (= (stack_t x_0 x_1 w_3 1 ?x3392) ?x3662) $x8010 (= (used_gas_t x_0 x_1 w_3 1) (+ 3 ?x3283)) $x7773 $x94 $x6490 $x11383 (= (stack_t x_0 x_1 w_3 2 ?x8347) w_3) (= ?x6271 (+ 3 (used_gas_t x_0 x_1 w_3 1))) $x3851 $x5057 $x4487 $x9455 $x1342 $x9439 $x7102 $x10692 $x6564 $x6380 $x73 $x341 $x58 $x924 $x8022 (not (and $x7281 $x1077 $x11613 $x1467))))))))))))))))))))))))))))))))))))))))))))))))))))))))))))))))))))))))))))))))))))))))))))))))))))))
 )
(check-sat)
(get-proof)
